\* Problem: bestun_likan_third_draft *\

Minimize
 MaxAlag: + TheMaxAlag

Subject To
 Alagsmaeling(1,1): + 6 x(1,1,1) + 6 x(1,2,1) + 4 x(2,1,1) + 4 x(2,2,1)
 + 2 x(3,1,1) + 2 x(3,2,1) + 4 x(4,1,1) + 4 x(4,2,1) - TheMaxAlag <= 8
 Alagsmaeling(1,2): + 6 x(1,1,2) + 6 x(1,2,2) + 4 x(2,1,2) + 4 x(2,2,2)
 + 2 x(3,1,2) + 2 x(3,2,2) + 4 x(4,1,2) + 4 x(4,2,2) - TheMaxAlag <= 8
 Bannad(1,2,1): + x(1,2,1) = -0
 Bannad(1,2,2): + x(1,2,2) = -0
 Bannad(2,2,1): + x(2,2,1) = -0
 Bannad(2,2,2): + x(2,2,2) = -0
 UseAll(1): + x(1,1,1) + x(1,2,1) + x(1,1,2) + x(1,2,2) = 1
 UseAll(2): + x(2,1,1) + x(2,2,1) + x(2,1,2) + x(2,2,2) = 1
 UseAll(3): + x(3,1,1) + x(3,2,1) + x(3,1,2) + x(3,2,2) = 1
 UseAll(4): + x(4,1,1) + x(4,2,1) + x(4,1,2) + x(4,2,2) = 1

Bounds
 0 <= x(1,1,1) <= 1
 0 <= x(1,2,1) <= 1
 0 <= x(2,1,1) <= 1
 0 <= x(2,2,1) <= 1
 0 <= x(3,1,1) <= 1
 0 <= x(3,2,1) <= 1
 0 <= x(4,1,1) <= 1
 0 <= x(4,2,1) <= 1
 0 <= x(1,1,2) <= 1
 0 <= x(1,2,2) <= 1
 0 <= x(2,1,2) <= 1
 0 <= x(2,2,2) <= 1
 0 <= x(3,1,2) <= 1
 0 <= x(3,2,2) <= 1
 0 <= x(4,1,2) <= 1
 0 <= x(4,2,2) <= 1

Generals
 x(1,1,1)
 x(1,2,1)
 x(2,1,1)
 x(2,2,1)
 x(3,1,1)
 x(3,2,1)
 x(4,1,1)
 x(4,2,1)
 x(1,1,2)
 x(1,2,2)
 x(2,1,2)
 x(2,2,2)
 x(3,1,2)
 x(3,2,2)
 x(4,1,2)
 x(4,2,2)

End
